[2026-03-25T06:05:32.410Z] Pipeline "set_big_6-10_big_6-10_s003_g003" → 2026_03_25_06_05_32_set_big_6-10_big_6-10_s003_g003_max.sol
Set parameter WLSAccessID
Set parameter WLSSecret
Set parameter LicenseID to value 2792458
Set parameter LogFile to value "gurobi.log"
Using license file /root/gurobi.lic
Academic license 2792458 - for non-commercial use only - registered to an___@studenti.unipg.it

Gurobi Optimizer version 13.0.1 build v13.0.1rc0 (linux64 - "Ubuntu 24.04.4 LTS")
Copyright (c) 2026, Gurobi Optimization, LLC

Warning: Duplicate section found (read 'binary') - Is a variable name equal to an LP file format keyword?
Warning: Duplicate section found (read 'binary') - Is a variable name equal to an LP file format keyword?
Warning: Duplicate section found (read 'binary') - Is a variable name equal to an LP file format keyword?
Warning: Duplicate section found (read 'binary') - Is a variable name equal to an LP file format keyword?
Warning: Duplicate section found (read 'binary') - Is a variable name equal to an LP file format keyword?
Warning: Duplicate section found (read 'binary') - Is a variable name equal to an LP file format keyword?
Warning: Duplicate section found (read 'binary') - Is a variable name equal to an LP file format keyword?
Warning: Duplicate section found (read 'binary') - Is a variable name equal to an LP file format keyword?
Warning: Duplicate section found (read 'binary') - Is a variable name equal to an LP file format keyword?
Warning: Duplicate section found (read 'binary') - Is a variable name equal to an LP file format keyword?
Warning: Further warnings of this type will be omitted.
Read LP format model from file /root/bgw/data/uploads/2026_03_25_06_05_32_set_big_6-10_big_6-10_s003_g003_max.lp
Reading time = 0.00 seconds
: 3009 rows, 471 columns, 9826 nonzeros

Using Gurobi shared library /opt/gurobi1301/linux64/lib/libgurobi.so.13.0.1

CPU model: AMD EPYC-Genoa Processor, instruction set [SSE2|AVX|AVX2|AVX512]
Thread count: 16 physical cores, 16 logical processors, using up to 16 threads

Academic license 2792458 - for non-commercial use only - registered to an___@studenti.unipg.it
Optimize a model with 3009 rows, 471 columns and 9826 nonzeros (Max)
Model fingerprint: 0x47dd8764
Model has 220 linear objective coefficients
Variable types: 239 continuous, 232 integer (232 binary)
Coefficient statistics:
  Matrix range     [1e+00, 2e+01]
  Objective range  [1e+00, 1e+00]
  Bounds range     [1e+00, 1e+00]
  RHS range        [1e+00, 2e+01]

Found heuristic solution: objective 220.0000000
Presolve removed 1002 rows and 261 columns
Presolve time: 0.01s
Presolved: 2007 rows, 210 columns, 6165 nonzeros
Variable types: 0 continuous, 210 integer (201 binary)
Found heuristic solution: objective 346.0000000

Root relaxation: objective 1.987000e+03, 297 iterations, 0.01 seconds (0.01 work units)

    Nodes    |    Current Node    |     Objective Bounds      |     Work
 Expl Unexpl |  Obj  Depth IntInf | Incumbent    BestBd   Gap | It/Node Time

     0     0 1987.00000    0   49  346.00000 1987.00000   474%     -    0s
H    0     0                     409.0000000 1987.00000   386%     -    0s
H    0     0                     599.0000000 1987.00000   232%     -    0s
     0     0 1987.00000    0   60  599.00000 1987.00000   232%     -    0s
     0     0 1987.00000    0   58  599.00000 1987.00000   232%     -    0s
H    0     0                     661.0000000 1987.00000   201%     -    0s
H    0     0                     662.0000000 1987.00000   200%     -    0s
     0     0 1987.00000    0   54  662.00000 1987.00000   200%     -    0s
     0     0 1987.00000    0   34  662.00000 1987.00000   200%     -    0s
     0     0 1986.00000    0   44  662.00000 1986.00000   200%     -    0s
     0     0 1986.00000    0   42  662.00000 1986.00000   200%     -    0s
     0     0 1924.00000    0   44  662.00000 1924.00000   191%     -    0s
     0     0 1924.00000    0   43  662.00000 1924.00000   191%     -    0s
     0     0 1924.00000    0   44  662.00000 1924.00000   191%     -    0s
     0     0 1924.00000    0   44  662.00000 1924.00000   191%     -    0s
     0     0 1924.00000    0   43  662.00000 1924.00000   191%     -    0s
     0     0 1924.00000    0   42  662.00000 1924.00000   191%     -    0s
     0     0 1923.70588    0   43  662.00000 1923.70588   191%     -    0s
     0     0 1923.70588    0   43  662.00000 1923.70588   191%     -    0s
     0     0 1922.00000    0   43  662.00000 1922.00000   190%     -    0s
     0     0 1922.00000    0   43  662.00000 1922.00000   190%     -    0s
     0     2 1922.00000    0   42  662.00000 1922.00000   190%     -    0s
H  843   587                     663.0000000 1922.00000   190%  47.0    0s
 20357  7225  785.59664   36   45  663.00000 1495.93877   126%  37.9    5s
 54749 17620 infeasible   38       663.00000 1289.23529  94.5%  36.9   10s
 100327 27512  844.52941   35   34  663.00000 1185.94118  78.9%  37.5   15s
 142895 34353  785.29412   37   61  663.00000 1098.32941  65.7%  38.2   20s
 189606 38413 1024.70588   37   29  663.00000 1038.03529  56.6%  38.6   25s
 231967 41733  778.88235   38   19  663.00000 1020.32620  53.9%  39.4   30s
 282076 42711  787.98693   37   60  663.00000  969.36471  46.2%  39.9   35s
 338687 38260  840.85714   36   26  663.00000  915.00000  38.0%  39.8   40s
 388742 36987 infeasible   37       663.00000  905.29947  36.5%  40.4   45s
 443908 26998     cutoff   45       663.00000  851.82353  28.5%  40.1   50s
 481890 21645  771.47059   41   25  663.00000  844.44706  27.4%  40.6   55s
 518986 12911  777.79412   40   31  663.00000  789.82353  19.1%  40.8   60s
 553354  2119     cutoff   39       663.00000  726.88235  9.64%  41.5   65s

Cutting planes:
  Inf proof: 1

Explored 558351 nodes (23193284 simplex iterations) in 65.62 seconds (117.11 work units)
Thread count was 16 (of 16 available processors)

Solution count 10: 663 663 663 ... 220

Optimal solution found (tolerance 1.00e-04)
Best objective 6.630000000000e+02, best bound 6.630000000000e+02, gap 0.0000%

Wrote result file '/root/bgw/data/results/2026_03_25_06_05_32_set_big_6-10_big_6-10_s003_g003_max.sol'

